NAME : pr10.tsp
COMMENT : 10-city problem
TYPE : TSP 
DIMENSION : 10
EDGE_WEIGHT_TYPE : CEIL_2D
NODE_COORD_SECTION 
1  2.124000e+03 4.440500e+04 
2  1.337800e+04 8.292000e+03 
3  9.279700e+04 7.491200e+04 
4  5.165500e+04 5.761200e+04 
5  5.981700e+04 3.756300e+04 
6  5.740000e+02 2.537800e+04 
7  3.545000e+04 6.630000e+02 
8  9.168200e+04 9.944000e+04 
9  2.033800e+04 3.514000e+03 
10 6.233000e+03 6.710800e+04 
EOF 
